GLPSOL--GLPK LP/MIP Solver 5.0
Parameter(s) specified in the command line:
 --lp ../modeles/20_389.lp --log 20_389.log
Reading problem data from '../modeles/20_389.lp'...
7861 rows, 15600 columns, 54560 non-zeros
7780 integer variables, all of which are binary
23487 lines were read
GLPK Integer Optimizer 5.0
7861 rows, 15600 columns, 54560 non-zeros
7780 integer variables, all of which are binary
Preprocessing...
7720 constraint coefficient(s) were reduced
7861 rows, 15580 columns, 54540 non-zeros
7780 integer variables, all of which are binary
Scaling...
 A: min|aij| =  2.643e-05  max|aij| =  4.000e+00  ratio =  1.513e+05
GM: min|aij| =  5.070e-02  max|aij| =  1.972e+01  ratio =  3.890e+02
EQ: min|aij| =  2.571e-03  max|aij| =  1.000e+00  ratio =  3.890e+02
2N: min|aij| =  1.953e-03  max|aij| =  1.763e+00  ratio =  9.025e+02
Constructing initial basis...
Size of triangular part is 7861
Solving LP relaxation...
GLPK Simplex Optimizer 5.0
7861 rows, 15580 columns, 54540 non-zeros
      0: obj =   4.000000000e+01 inf =   9.950e+01 (41)
Perturbing LP to avoid stalling [199]...
    419: obj =   4.997389638e-01 inf =   0.000e+00 (0)
Removing LP perturbation [1338]...
*  1338: obj =  -4.471269572e+00 inf =   3.884e-14 (0) 1
OPTIMAL LP SOLUTION FOUND
Integer optimization begins...
Long-step dual simplex will be used
+  1338: mip =     not found yet >=              -inf        (1; 0)
+  1532: mip =     not found yet >=  -4.471269572e+00        (191; 0)
+  1748: mip =     not found yet >=  -4.471269572e+00        (402; 0)
+  1894: >>>>>  -4.471269572e+00 >=  -4.471269572e+00   0.0% (543; 0)
+  1894: mip =  -4.471269572e+00 >=     tree is empty   0.0% (0; 1085)
INTEGER OPTIMAL SOLUTION FOUND
Time used:   13.2 secs
Memory used: 22.8 Mb (23900806 bytes)
